p tw 63 72
1 2
2 13
3 4
4 5
5 6
6 7
7 8
8 9
9 10
10 11
10 16
11 12
12 14
13 24
14 15
15 16
16 17
17 18
18 19
19 20
20 21
21 22
21 37
22 23
23 25
23 37
24 35
25 26
26 27
27 28
28 29
28 33
29 30
30 31
30 33
31 32
32 33
32 37
33 34
34 36
35 46
36 37
37 38
38 39
39 40
39 59
40 41
41 42
42 43
43 44
43 59
44 45
45 47
45 55
46 57
47 48
48 49
49 50
50 51
51 52
52 53
53 54
54 55
55 56
56 58
57 61
58 59
59 60
61 62
61 5
62 63
63 3
